p cnf 12 50 
-4 -7 10 0
3 -10 -12 0
5 10 4 0
7 -10 3 0
1 11 -3 0
11 3 10 0
4 3 -12 0
-11 -2 12 0
12 3 2 0
-11 -7 1 0
2 -8 5 0
-3 7 11 0
3 -1 5 0
5 4 -11 0
12 -2 3 0
3 2 -9 0
7 12 4 0
9 -7 -3 0
-8 -5 9 0
1 8 11 0
-8 -3 -11 0
-7 -2 10 0
7 2 6 0
-8 2 -11 0
4 -8 11 0
-9 6 11 0
-1 3 -10 0
-3 -11 -8 0
1 -7 3 0
1 9 -11 0
-12 11 -5 0
-11 -12 -3 0
11 8 4 0
-11 -8 10 0
12 3 -4 0
10 -5 1 0
-11 8 2 0
-1 -12 -10 0
3 -9 8 0
-5 -3 8 0
-3 6 -5 0
-3 4 -1 0
4 -1 12 0
-11 8 9 0
-9 7 -12 0
12 9 -3 0
-5 -1 -8 0
-4 -5 11 0
2 9 12 0
9 10 -11 0
